
Gurobi 13.0.2 (win64) logging started Thu Jul 23 18:35:03 2026

Set parameter LogFile to value "E:\codes\ExactEBRP\results\gf_gurobi_performance_recovery_round29\runs\stage4__high_imbalance_seed5202__c4_candidate__rep1__300s\external\native_logs\L1.1.0.0.1_lp.gurobi.log"
Gurobi Optimizer version 13.0.2 build v13.0.2rc1 (win64 - Windows 10.0 (19045.2))

CPU model: 12th Gen Intel(R) Core(TM) i7-12700KF, instruction set [SSE2|AVX|AVX2]
Thread count: 12 physical cores, 20 logical processors, using up to 1 threads

Non-default parameters:
TimeLimit  275.5809629
MIPGap  0
MIPGapAbs  0
LogToConsole  0
Threads  1

Optimize a model with 11923 rows, 3380 columns and 67410 nonzeros (Min)
Model fingerprint: 0x660ed795
Model has 21 linear objective coefficients
Coefficient statistics:
  Matrix range     [2e-02, 2e+04]
  Objective range  [2e-02, 1e+00]
  Bounds range     [4e-01, 7e+02]
  RHS range        [4e-01, 5e+04]

Presolve removed 1339 rows and 105 columns
Presolve time: 0.03s
Presolved: 10584 rows, 3276 columns, 55903 nonzeros

Iteration    Objective       Primal Inf.    Dual Inf.      Time
       0    4.4559420e-01   5.116346e+02   0.000000e+00      0s
    4005    1.0106878e+00   0.000000e+00   0.000000e+00      0s

Solved in 4005 iterations and 0.30 seconds (0.87 work units)
Optimal objective  1.010687798e+00

User-callback calls 4150, time in user-callback 0.00 sec
